NAME: P-n16-k8
COMMENT: GVRP 
DIMENSION:  16 
VEHICLES:  5 
GVRP_SETS:  8 
CAPACITY:  35 
NODE_COORD_SECTION 
1 30.000000 40.000000
2 37.000000 52.000000
3 49.000000 49.000000
4 52.000000 64.000000
5 31.000000 62.000000
6 52.000000 33.000000
7 42.000000 41.000000
8 52.000000 41.000000
9 57.000000 58.000000
10 62.000000 42.000000
11 42.000000 57.000000
12 27.000000 68.000000
13 43.000000 67.000000
14 58.000000 48.000000
15 58.000000 27.000000
16 37.000000 69.000000
GVRP_SET_SECTION 
 1 4  9 -1
 2  15  6 -1
 3  12  5 -1
 4  7 -1
 5  14  8  10 -1
 6  2  11 -1
 7  16  13 -1
 8  3 -1
 DEMAND_SECTION
 1 22 
 2 15 
 3 15 
 4 31 
 5 9 
 6 13 
 7 12 
 8 30 
INTRA_CLUSTER_DISTANCE
10000000000000 10000000000000 10000000000000 10000000000000 10000000000000 10000000000000 10000000000000 10000000000000 10000000000000 10000000000000 10000000000000 10000000000000 10000000000000 10000000000000 10000000000000 10000000000000 
10000000000000 10000000000000 10000000000000 10000000000000 10000000000000 10000000000000 10000000000000 10000000000000 10000000000000 10000000000000 7 10000000000000 10000000000000 10000000000000 10000000000000 10000000000000 
10000000000000 10000000000000 10000000000000 10000000000000 10000000000000 10000000000000 10000000000000 10000000000000 10000000000000 10000000000000 10000000000000 10000000000000 10000000000000 10000000000000 10000000000000 10000000000000 
10000000000000 10000000000000 10000000000000 10000000000000 10000000000000 10000000000000 10000000000000 10000000000000 8 10000000000000 10000000000000 10000000000000 10000000000000 10000000000000 10000000000000 10000000000000 
10000000000000 10000000000000 10000000000000 10000000000000 10000000000000 10000000000000 10000000000000 10000000000000 10000000000000 10000000000000 10000000000000 7 10000000000000 10000000000000 10000000000000 10000000000000 
10000000000000 10000000000000 10000000000000 10000000000000 10000000000000 10000000000000 10000000000000 10000000000000 10000000000000 10000000000000 10000000000000 10000000000000 10000000000000 10000000000000 8 10000000000000 
10000000000000 10000000000000 10000000000000 10000000000000 10000000000000 10000000000000 10000000000000 10000000000000 10000000000000 10000000000000 10000000000000 10000000000000 10000000000000 10000000000000 10000000000000 10000000000000 
10000000000000 10000000000000 10000000000000 10000000000000 10000000000000 10000000000000 10000000000000 10000000000000 10000000000000 16 10000000000000 10000000000000 10000000000000 17 10000000000000 10000000000000 
10000000000000 10000000000000 10000000000000 8 10000000000000 10000000000000 10000000000000 10000000000000 10000000000000 10000000000000 10000000000000 10000000000000 10000000000000 10000000000000 10000000000000 10000000000000 
10000000000000 10000000000000 10000000000000 10000000000000 10000000000000 10000000000000 10000000000000 16 10000000000000 10000000000000 10000000000000 10000000000000 10000000000000 19 10000000000000 10000000000000 
10000000000000 7 10000000000000 10000000000000 10000000000000 10000000000000 10000000000000 10000000000000 10000000000000 10000000000000 10000000000000 10000000000000 10000000000000 10000000000000 10000000000000 10000000000000 
10000000000000 10000000000000 10000000000000 10000000000000 7 10000000000000 10000000000000 10000000000000 10000000000000 10000000000000 10000000000000 10000000000000 10000000000000 10000000000000 10000000000000 10000000000000 
10000000000000 10000000000000 10000000000000 10000000000000 10000000000000 10000000000000 10000000000000 10000000000000 10000000000000 10000000000000 10000000000000 10000000000000 10000000000000 10000000000000 10000000000000 6 
10000000000000 10000000000000 10000000000000 10000000000000 10000000000000 10000000000000 10000000000000 17 10000000000000 19 10000000000000 10000000000000 10000000000000 10000000000000 10000000000000 10000000000000 
10000000000000 10000000000000 10000000000000 10000000000000 10000000000000 8 10000000000000 10000000000000 10000000000000 10000000000000 10000000000000 10000000000000 10000000000000 10000000000000 10000000000000 10000000000000 
10000000000000 10000000000000 10000000000000 10000000000000 10000000000000 10000000000000 10000000000000 10000000000000 10000000000000 10000000000000 10000000000000 10000000000000 6 10000000000000 10000000000000 10000000000000 
EOF
